c 27_4_checker.cnf
c
c field = 27
c formula set type = 4_checker
c
p cnf 5 28
44 
46 
48 
50 
-42 
45 
47 
49 
51 
-43 
44 
46 
48 
50 
-54 
45 
47 
49 
51 
-55 
46 
48 
50 
54 
-44 
47 
49 
51 
55 
-45 
46 
48 
50 
54 
-56 
47 
49 
51 
55 
-57 
48 
50 
54 
56 
-46 
49 
51 
55 
57 
-47 
48 
50 
54 
56 
-58 
49 
51 
55 
57 
-59 
50 
54 
56 
58 
-48 
51 
55 
57 
59 
-49 
22 
82 
112 
142 
-172 
23 
83 
113 
143 
-173 
82 
112 
142 
172 
-22 
83 
113 
143 
173 
-23 
82 
112 
142 
172 
-202 
83 
113 
143 
173 
-203 
20 
84 
116 
148 
-52 
21 
85 
117 
149 
-53 
24 
80 
108 
136 
-164 
25 
81 
109 
137 
-165 
80 
108 
136 
164 
-24 
81 
109 
137 
165 
-25 
80 
108 
136 
164 
-192 
81 
109 
137 
165 
-193 
